TOUR_SECTION
1
5
91
95
189
110
20
35
126
133
84
69
32
105
53
61
194
4
47
201
144
88
146
14
148
38
45
181
68
81
197
174
16
152
142
64
131
70
6
156
77
80
109
40
42
107
154
185
54
96
113
120
44
134
62
139
159
102
158
122
195
147
78
10
7
86
184
37
169
50
175
57
39
66
183
173
82
150
103
51
199
200
87
145
129
73
141
60
21
193
100
3
180
187
121
119
117
176
99
67
76
25
63
115
177
172
190
124
52
71
41
149
22
93
188
125
49
27
127
104
74
166
128
58
171
75
192
79
140
15
163
36
83
106
43
162
85
31
13
135
28
165
101
198
30
108
29
12
155
182
114
168
153
112
123
19
24
136
196
178
191
186
65
160
72
164
97
161
157
92
130
151
26
11
111
170
179
90
2
89
143
17
33
118
167
46
59
23
8
94
116
9
132
48
138
34
98
137
55
56
18
-1
EOF